(set-option :auto-config false)
(set-option :model true)
(set-option :model.partial false)

(set-option :smt.mbqi false)
(define-sort Str () Int)
(declare-fun strLen (Str) Int)
(declare-fun subString (Str Int Int) Str)
(declare-fun concatString (Str Str) Str)
(define-sort Elt () Int)
(define-sort Set () (Array Elt Bool))
(define-fun smt_set_emp () Set ((as const Set) false))
(define-fun smt_set_mem ((x Elt) (s Set)) Bool (select s x))
(define-fun smt_set_add ((s Set) (x Elt)) Set (store s x true))
(define-fun smt_set_cup ((s1 Set) (s2 Set)) Set ((_ map or) s1 s2))
(define-fun smt_set_cap ((s1 Set) (s2 Set)) Set ((_ map and) s1 s2))
(define-fun smt_set_com ((s Set)) Set ((_ map not) s))
(define-fun smt_set_dif ((s1 Set) (s2 Set)) Set (smt_set_cap s1 (smt_set_com s2)))
(define-fun smt_set_sub ((s1 Set) (s2 Set)) Bool (= smt_set_emp (smt_set_dif s1 s2)))
(define-sort Map () (Array Elt Elt))
(define-fun smt_map_sel ((m Map) (k Elt)) Elt (select m k))
(define-fun smt_map_sto ((m Map) (k Elt) (v Elt)) Map (store m k v))
(define-fun bool_to_int ((b Bool)) Int (ite b 1 0))
(define-fun Z3_OP_MUL ((x Int) (y Int)) Int (* x y))
(define-fun Z3_OP_DIV ((x Int) (y Int)) Int (div x y))
(declare-fun int_apply_$35$$35$3 (Int Int Int Int) Int)
(declare-fun bool_apply_$35$$35$6 (Int Int Int Int Int Int Int) Bool)
(declare-fun map_apply_$35$$35$4 (Int Int Int Int Int) Map)
(declare-fun real_apply_$35$$35$2 (Int Int Int) Real)
(declare-fun lam_int_arg$35$$35$3 () Int)
(declare-fun set_apply_$35$$35$1 (Int Int) Set)
(declare-fun lam_int_arg$35$$35$5 () Int)
(declare-fun set_to_int (Set) Int)
(declare-fun bitvec_apply$35$$35$6 (Int Int Int Int Int Int Int) (_ BitVec 32))
(declare-fun int_apply_$35$$35$5 (Int Int Int Int Int Int) Int)
(declare-fun map_apply_$35$$35$2 (Int Int Int) Map)
(declare-fun real_apply_$35$$35$4 (Int Int Int Int Int) Real)
(declare-fun lam_int_arg$35$$35$2 () Int)
(declare-fun bitvec_apply$35$$35$1 (Int Int) (_ BitVec 32))
(declare-fun int_apply_$35$$35$2 (Int Int Int) Int)
(declare-fun bool_apply_$35$$35$7 (Int Int Int Int Int Int Int Int) Bool)
(declare-fun map_apply_$35$$35$5 (Int Int Int Int Int Int) Map)
(declare-fun real_apply_$35$$35$3 (Int Int Int Int) Real)
(declare-fun set_apply_$35$$35$6 (Int Int Int Int Int Int Int) Set)
(declare-fun bitvec_apply$35$$35$7 (Int Int Int Int Int Int Int Int) (_ BitVec 32))
(declare-fun int_apply_$35$$35$4 (Int Int Int Int Int) Int)
(declare-fun bool_apply_$35$$35$1 (Int Int) Bool)
(declare-fun map_apply_$35$$35$3 (Int Int Int Int) Map)
(declare-fun real_apply_$35$$35$5 (Int Int Int Int Int Int) Real)
(declare-fun lam_int_arg$35$$35$4 () Int)
(declare-fun lam_int_arg$35$$35$1 () Int)
(declare-fun bitvec_apply$35$$35$2 (Int Int Int) (_ BitVec 32))
(declare-fun int_apply_$35$$35$1 (Int Int) Int)
(declare-fun bool_apply_$35$$35$4 (Int Int Int Int Int) Bool)
(declare-fun map_apply_$35$$35$6 (Int Int Int Int Int Int Int) Map)
(declare-fun set_apply_$35$$35$7 (Int Int Int Int Int Int Int Int) Set)
(declare-fun map_to_int (Map) Int)
(declare-fun set_apply_$35$$35$2 (Int Int Int) Set)
(declare-fun real_apply_$35$$35$1 (Int Int) Real)
(declare-fun bitvec_to_int ((_ BitVec 32)) Int)
(declare-fun bitvec_apply$35$$35$3 (Int Int Int Int) (_ BitVec 32))
(declare-fun bool_apply_$35$$35$5 (Int Int Int Int Int Int) Bool)
(declare-fun map_apply_$35$$35$7 (Int Int Int Int Int Int Int Int) Map)
(declare-fun set_apply_$35$$35$4 (Int Int Int Int Int) Set)
(declare-fun real_to_int (Real) Int)
(declare-fun smt_lambda (Int Int) Int)
(declare-fun set_apply_$35$$35$3 (Int Int Int Int) Set)
(declare-fun lam_int_arg$35$$35$7 () Int)
(declare-fun int_apply_$35$$35$7 (Int Int Int Int Int Int Int Int) Int)
(declare-fun bitvec_apply$35$$35$4 (Int Int Int Int Int) (_ BitVec 32))
(declare-fun bool_apply_$35$$35$2 (Int Int Int) Bool)
(declare-fun real_apply_$35$$35$6 (Int Int Int Int Int Int Int) Real)
(declare-fun set_apply_$35$$35$5 (Int Int Int Int Int Int) Set)
(declare-fun bool_apply_$35$$35$3 (Int Int Int Int) Bool)
(declare-fun map_apply_$35$$35$1 (Int Int) Map)
(declare-fun real_apply_$35$$35$7 (Int Int Int Int Int Int Int Int) Real)
(declare-fun lam_int_arg$35$$35$6 () Int)
(declare-fun int_apply_$35$$35$6 (Int Int Int Int Int Int Int) Int)
(declare-fun bitvec_apply$35$$35$5 (Int Int Int Int Int Int) (_ BitVec 32))
(declare-fun VV$35$$35$9519 () Int)
(declare-fun runFun () Int)
(declare-fun lq_tmp$36$x$35$$35$2441 () Int)
(declare-fun VV$35$$35$11015 () Int)
(declare-fun Lib.$36$tc$39$EMA () Int)
(declare-fun lq_tmp$36$x$35$$35$7804 () Int)
(declare-fun VV$35$$35$9850 () Int)
(declare-fun lit$36$EMA$32$ () Str)
(declare-fun lq_tmp$36$x$35$$35$3213 () Int)
(declare-fun VV$35$$35$10836 () Int)
(declare-fun VV$35$$35$10490 () Int)
(declare-fun lq_tmp$36$x$35$$35$2405 () Int)
(declare-fun lq_tmp$36$x$35$$35$6793 () Int)
(declare-fun lq_tmp$36$x$35$$35$3198 () Int)
(declare-fun lq_tmp$36$x$35$$35$3257 () Int)
(declare-fun VV$35$$35$10379 () Int)
(declare-fun GHC.Real.$36$fIntegralInteger () Int)
(declare-fun VV$35$$35$8370 () Int)
(declare-fun VV$35$$35$10467 () Int)
(declare-fun fix$36$$36$dFractional_axeh () Int)
(declare-fun lq_tmp$36$x$35$$35$3008 () Int)
(declare-fun o$35$$35$ausl () Int)
(declare-fun numCandles$35$$35$aurf () Int)
(declare-fun VV$35$$35$11994 () Int)
(declare-fun VV$35$$35$11235 () Int)
(declare-fun VV$35$$35$8994 () Int)
(declare-fun VV$35$$35$10702 () Int)
(declare-fun lq_tmp$36$x$35$$35$4667 () Int)
(declare-fun VV$35$$35$12362 () Int)
(declare-fun VV$35$$35$10885 () Int)
(declare-fun lq_tmp$36$x$35$$35$7271 () Int)
(declare-fun VV$35$$35$10401 () Int)
(declare-fun addrLen () Int)
(declare-fun VV$35$$35$10126 () Int)
(declare-fun VV$35$$35$11286 () Int)
(declare-fun VV$35$$35$10423 () Int)
(declare-fun h$35$$35$ausk () Int)
(declare-fun VV$35$$35$10647 () Int)
(declare-fun lit$36$EMA () Str)
(declare-fun VV$35$$35$12623 () Int)
(declare-fun papp5 () Int)
(declare-fun VV$35$$35$11941 () Int)
(declare-fun lq_tmp$36$x$35$$35$4421 () Int)
(declare-fun x_Tuple21 () Int)
(declare-fun lq_anf$36$$35$$35$7205759403792929000$35$$35$dzdS () Int)
(declare-fun VV$35$$35$10360 () Int)
(declare-fun lq_tmp$36$x$35$$35$7268 () Int)
(declare-fun lq_anf$36$$35$$35$7205759403792929004$35$$35$dzdW () Int)
(declare-fun VV$35$$35$11712 () Int)
(declare-fun Graphics.Rendering.Chart.Plot.Candle.$36$fDefaultPlotCandle () Int)
(declare-fun x_Tuple65 () Int)
(declare-fun ds_dz7V () Int)
(declare-fun lq_tmp$36$x$35$$35$2299 () Int)
(declare-fun lq_anf$36$$35$$35$7205759403792929024$35$$35$dzeg () Int)
(declare-fun v$35$$35$ausn () Int)
(declare-fun x_Tuple55 () Int)
(declare-fun lq_tmp$36$x$35$$35$7263 () Int)
(declare-fun VV$35$$35$12581 () Int)
(declare-fun l$35$$35$atV8 () Int)
(declare-fun VV$35$$35$10710 () Int)
(declare-fun lq_anf$36$$35$$35$7205759403792928996$35$$35$dzdO () Int)
(declare-fun VV$35$$35$11546 () Int)
(declare-fun VV$35$$35$12804 () Int)
(declare-fun VV$35$$35$9169 () Int)
(declare-fun x_Tuple33 () Int)
(declare-fun VV$35$$35$9068 () Int)
(declare-fun VV$35$$35$12729 () Int)
(declare-fun lq_tmp$36$x$35$$35$5621 () Int)
(declare-fun GHC.Types.LT () Int)
(declare-fun lq_tmp$36$x$35$$35$2921 () Int)
(declare-fun lq_anf$36$$35$$35$7205759403792928998$35$$35$dzdQ () Int)
(declare-fun VV$35$$35$8870 () Int)
(declare-fun lq_tmp$36$x$35$$35$4477 () Int)
(declare-fun VV$35$$35$8197 () Int)
(declare-fun x_Tuple77 () Int)
(declare-fun VV$35$$35$8263 () Int)
(declare-fun lq_anf$36$$35$$35$7205759403792929028$35$$35$dzek () Int)
(declare-fun VV$35$$35$10385 () Int)
(declare-fun VV$35$$35$11304 () Real)
(declare-fun VV$35$$35$11007 () Real)
(declare-fun lq_tmp$36$x$35$$35$3223 () Int)
(declare-fun lq_tmp$36$x$35$$35$3461 () Int)
(declare-fun VV$35$$35$8766 () Int)
(declare-fun lq_anf$36$$35$$35$7205759403792928992$35$$35$dzdK () Int)
(declare-fun lq_tmp$36$x$35$$35$7816 () Int)
(declare-fun VV$35$$35$12840 () Int)
(declare-fun lq_anf$36$$35$$35$7205759403792928990$35$$35$dzdI () Int)
(declare-fun VV$35$$35$9842 () Int)
(declare-fun VV$35$$35$10798 () Int)
(declare-fun VV$35$$35$10754 () Int)
(declare-fun lq_tmp$36$x$35$$35$3092 () Int)
(declare-fun VV$35$$35$12598 () Int)
(declare-fun lq_tmp$36$x$35$$35$6336 () Int)
(declare-fun lq_anf$36$$35$$35$7205759403792929046$35$$35$dzeC () Int)
(declare-fun close$35$$35$atVg () Real)
(declare-fun low$35$$35$atVe () Real)
(declare-fun fix$36$$36$dMonadReader_axlT () Int)
(declare-fun lq_tmp$36$x$35$$35$2593 () Int)
(declare-fun lq_tmp$36$x$35$$35$2359 () Int)
(declare-fun VV$35$$35$11280 () Int)
(declare-fun lq_anf$36$$35$$35$7205759403792929001$35$$35$dzdT () Int)
(declare-fun VV$35$$35$8211 () Int)
(declare-fun VV$35$$35$12302 () Int)
(declare-fun Lib.$36$tc$39$SMA () Int)
(declare-fun lq_tmp$36$x$35$$35$3086 () Int)
(declare-fun VV$35$$35$10290 () Int)
(declare-fun lq_tmp$36$x$35$$35$2690 () Int)
(declare-fun papp3 () Int)
(declare-fun VV$35$$35$8471 () Int)
(declare-fun lq_tmp$36$x$35$$35$7570 () Int)
(declare-fun x_Tuple63 () Int)
(declare-fun lit$36$SMA () Str)
(declare-fun VV$35$$35$8587 () Int)
(declare-fun x_Tuple41 () Int)
(declare-fun lq_anf$36$$35$$35$7205759403792929087$35$$35$dzfh () Int)
(declare-fun VV$35$$35$9856 () Real)
(declare-fun VV$35$$35$9139 () Int)
(declare-fun VV$35$$35$10579 () Int)
(declare-fun VV$35$$35$9829 () Int)
(declare-fun lq_tmp$36$x$35$$35$3152 () Int)
(declare-fun lq_anf$36$$35$$35$7205759403792929003$35$$35$dzdV () Int)
(declare-fun VV$35$$35$10524 () Int)
(declare-fun VV$35$$35$11684 () Int)
(declare-fun lit$36$SMA$32$ () Str)
(declare-fun lq_tmp$36$x$35$$35$4119 () Int)
(declare-fun lq_tmp$36$x$35$$35$3273 () Int)
(declare-fun VV$35$$35$10975 () Int)
(declare-fun VV$35$$35$10830 () Int)
(declare-fun fix$36$$36$dNum_axe7 () Int)
(declare-fun lq_tmp$36$x$35$$35$4364 () Real)
(declare-fun VV$35$$35$11846 () Int)
(declare-fun VV$35$$35$12742 () Int)
(declare-fun VV$35$$35$10461 () Int)
(declare-fun time$35$$35$atVd () Int)
(declare-fun VV$35$$35$11310 () Int)
(declare-fun VV$35$$35$8736 () Int)
(declare-fun VV$35$$35$10795 () Int)
(declare-fun GHC.Types.$58$ () Int)
(declare-fun VV$35$$35$9419 () Int)
(declare-fun lq_tmp$36$x$35$$35$2541 () Int)
(declare-fun VV$35$$35$10792 () Int)
(declare-fun VV$35$$35$8317 () Int)
(declare-fun GHC.Prim.void$35$ () Int)
(declare-fun lq_tmp$36$x$35$$35$7270 () Int)
(declare-fun lq_tmp$36$x$35$$35$2594 () Int)
(declare-fun VV$35$$35$10620 () Int)
(declare-fun VV$35$$35$9884 () Int)
(declare-fun VV$35$$35$9523 () Int)
(declare-fun lq_tmp$36$x$35$$35$6325 () Int)
(declare-fun VV$35$$35$12464 () Int)
(declare-fun lq_tmp$36$x$35$$35$2293 () Int)
(declare-fun papp4 () Int)
(declare-fun GHC.Types.Module () Int)
(declare-fun lq_tmp$36$x$35$$35$7269 () Int)
(declare-fun lq_tmp$36$x$35$$35$4600 () Real)
(declare-fun lit$36$$39$SMA () Str)
(declare-fun x_Tuple64 () Int)
(declare-fun VV$35$$35$8270 () Int)
(declare-fun VV$35$$35$10343 () Int)
(declare-fun VV$35$$35$10590 () Int)
(declare-fun high$35$$35$atVh () Real)
(declare-fun VV$35$$35$12619 () Int)
(declare-fun VV$35$$35$10163 () Int)
(declare-fun fix$36$$36$dShow_axG7 () Int)
(declare-fun GHC.Real.$36$fRealInt () Int)
(declare-fun VV$35$$35$11216 () Real)
(declare-fun VV$35$$35$12394 () Int)
(declare-fun VV$35$$35$11036 () Int)
(declare-fun VV$35$$35$9224 () Int)
(declare-fun GHC.Types.I$35$ () Int)
(declare-fun VV$35$$35$8674 () Int)
(declare-fun Control.Monad.IO.Class.$36$fMonadIOIO () Int)
(declare-fun lq_anf$36$$35$$35$7205759403792929010$35$$35$dze2 () Int)
(declare-fun VV$35$$35$12952 () Bool)
(declare-fun VV$35$$35$9004 () Int)
(declare-fun lq_tmp$36$x$35$$35$6792 () Int)
(declare-fun GHC.Num.$36$fNumInt () Int)
(declare-fun lq_tmp$36$x$35$$35$7757 () Int)
(declare-fun lq_tmp$36$x$35$$35$3199 () Int)
(declare-fun VV$35$$35$11894 () Int)
(declare-fun o$35$$35$atVa () Int)
(declare-fun VV$35$$35$9279 () Int)
(declare-fun Graphics.Rendering.Chart.Axis.Floating.$36$fPlotValueDouble () Int)
(declare-fun lq_tmp$36$x$35$$35$4723 () Real)
(declare-fun VV$35$$35$10818 () Int)
(declare-fun VV$35$$35$9818 () Int)
(declare-fun VV$35$$35$12298 () Int)
(declare-fun VV$35$$35$8796 () Int)
(declare-fun VV$35$$35$8190 () Int)
(declare-fun VV$35$$35$12649 () Int)
(declare-fun VV$35$$35$10382 () Int)
(declare-fun Lib.EMA () Int)
(declare-fun VV$35$$35$11981 () Int)
(declare-fun lq_anf$36$$35$$35$7205759403792928984$35$$35$dzdC () Int)
(declare-fun GHC.Show.$36$fShowInteger () Int)
(declare-fun fix$36$$36$dEq_axK1 () Int)
(declare-fun lq_tmp$36$x$35$$35$6786 () Int)
(declare-fun VV$35$$35$9753 () Int)
(declare-fun autolen () Int)
(declare-fun VV$35$$35$9283 () Int)
(declare-fun fix$36$$36$dMonad_axmj () Int)
(declare-fun VV$35$$35$10669 () Int)
(declare-fun VV$35$$35$11264 () Int)
(declare-fun VV$35$$35$10991 () Int)
(declare-fun VV$35$$35$10449 () Int)
(declare-fun x_Tuple52 () Int)
(declare-fun VV$35$$35$10584 () Int)
(declare-fun VV$35$$35$11761 () Int)
(declare-fun lq_tmp$36$x$35$$35$7264 () Int)
(declare-fun VV$35$$35$12056 () Int)
(declare-fun lq_anf$36$$35$$35$7205759403792929006$35$$35$dzdY () Int)
(declare-fun VV$35$$35$10177 () Int)
(declare-fun head () Int)
(declare-fun Graphics.Rendering.Chart.Backend.Diagrams.$36$fDefaultFileOptions () Int)
(declare-fun VV$35$$35$12131 () Int)
(declare-fun VV$35$$35$10010 () Real)
(declare-fun lq_anf$36$$35$$35$7205759403792929030$35$$35$dzem () Real)
(declare-fun VV$35$$35$9890 () Int)
(declare-fun VV$35$$35$11778 () Int)
(declare-fun VV$35$$35$11642 () Int)
(declare-fun VV$35$$35$9032 () Int)
(declare-fun lq_tmp$36$x$35$$35$5670 () Int)
(declare-fun VV$35$$35$10046 () Int)
(declare-fun VV$35$$35$12808 () Int)
(declare-fun VV$35$$35$8568 () Int)
(declare-fun lq_anf$36$$35$$35$7205759403792929026$35$$35$dzei () Int)
(declare-fun VV$35$$35$8636 () Int)
(declare-fun lq_tmp$36$x$35$$35$3698 () Int)
(declare-fun VV$35$$35$9794 () Int)
(declare-fun lq_tmp$36$x$35$$35$2565 () Int)
(declare-fun lit$36$$39$EMA () Str)
(declare-fun VV$35$$35$12088 () Int)
(declare-fun fix$36$$36$dEq_axH1 () Int)
(declare-fun lq_tmp$36$x$35$$35$2464 () Int)
(declare-fun VV$35$$35$10695 () Int)
(declare-fun lq_tmp$36$x$35$$35$6794 () Int)
(declare-fun VV$35$$35$10543 () Int)
(declare-fun VV$35$$35$10497 () Int)
(declare-fun lq_tmp$36$x$35$$35$2420 () Int)
(declare-fun VV$35$$35$12697 () Int)
(declare-fun VV$35$$35$F$35$$35$184 () Real)
(declare-fun Coinbase.Exchange.Types.MarketData.Candle () Int)
(declare-fun VV$35$$35$12642 () Int)
(declare-fun candles$35$$35$aula () Int)
(declare-fun VV$35$$35$11355 () Int)
(declare-fun Graphics.Rendering.Chart.Backend.Types.LineStyle () Int)
(declare-fun lq_tmp$36$x$35$$35$4811 () Int)
(declare-fun VV$35$$35$8964 () Int)
(declare-fun VV$35$$35$8902 () Int)
(declare-fun Control.Monad.Base.$36$fMonadBaseIOIO () Int)
(declare-fun utcTime$35$$35$atV7 () Int)
(declare-fun VV$35$$35$9192 () Int)
(declare-fun VV$35$$35$8232 () Int)
(declare-fun VV$35$$35$11614 () Int)
(declare-fun VV$35$$35$10002 () Int)
(declare-fun lq_tmp$36$x$35$$35$3483 () Int)
(declare-fun lq_tmp$36$x$35$$35$3960 () Bool)
(declare-fun VV$35$$35$9093 () Int)
(declare-fun papp2 () Int)
(declare-fun VV$35$$35$10442 () Int)
(declare-fun Graphics.Rendering.Chart.Plot.Candle.$36$fToPlotPlotCandle () Int)
(declare-fun VV$35$$35$8847 () Int)
(declare-fun VV$35$$35$10367 () Int)
(declare-fun VV$35$$35$11803 () Int)
(declare-fun x_Tuple62 () Int)
(declare-fun VV$35$$35$11385 () Bool)
(declare-fun lq_tmp$36$x$35$$35$2931 () Int)
(declare-fun VV$35$$35$10340 () Int)
(declare-fun lq_tmp$36$x$35$$35$4544 () Int)
(declare-fun lq_anf$36$$35$$35$7205759403792929033$35$$35$dzep () Int)
(declare-fun VV$35$$35$11116 () Int)
(declare-fun VV$35$$35$10593 () Int)
(declare-fun VV$35$$35$10227 () Int)
(declare-fun VV$35$$35$8776 () Int)
(declare-fun VV$35$$35$8925 () Int)
(declare-fun Lib.$36$fEqEMA () Int)
(declare-fun lq_tmp$36$x$35$$35$7732 () Int)
(declare-fun lq_tmp$36$x$35$$35$3130 () Int)
(declare-fun VV$35$$35$10502 () Int)
(declare-fun VV$35$$35$9870 () Real)
(declare-fun VV$35$$35$11680 () Int)
(declare-fun lq_tmp$36$x$35$$35$4278 () Int)
(declare-fun VV$35$$35$8431 () Int)
(declare-fun VV$35$$35$10546 () Int)
(declare-fun VV$35$$35$8574 () Int)
(declare-fun lq_tmp$36$x$35$$35$2524 () Int)
(declare-fun VV$35$$35$9403 () Int)
(declare-fun lq_tmp$36$x$35$$35$6791 () Int)
(declare-fun VV$35$$35$12490 () Int)
(declare-fun lit$36$main () Str)
(declare-fun VV$35$$35$8655 () Int)
(declare-fun VV$35$$35$12746 () Int)
(declare-fun VV$35$$35$11897 () Int)
(declare-fun VV$35$$35$8732 () Int)
(declare-fun VV$35$$35$8961 () Int)
(declare-fun fromJust () Int)
(declare-fun VV$35$$35$8336 () Int)
(declare-fun VV$35$$35$10241 () Int)
(declare-fun fix$36$$36$dMonadError_axlU () Int)
(declare-fun lq_tmp$36$x$35$$35$2542 () Int)
(declare-fun VV$35$$35$11071 () Real)
(declare-fun lq_tmp$36$x$35$$35$6788 () Int)
(declare-fun VV$35$$35$9395 () Int)
(declare-fun VV$35$$35$9502 () Int)
(declare-fun lq_anf$36$$35$$35$7205759403792929009$35$$35$dze1 () Int)
(declare-fun VV$35$$35$10007 () Int)
(declare-fun VV$35$$35$9887 () Int)
(declare-fun lq_tmp$36$x$35$$35$4063 () Int)
(declare-fun VV$35$$35$11372 () Real)
(declare-fun lq_tmp$36$x$35$$35$5994 () Int)
(declare-fun papp7 () Int)
(declare-fun VV$35$$35$9447 () Int)
(declare-fun lq_tmp$36$x$35$$35$2480 () Int)
(declare-fun VV$35$$35$10275 () Int)
(declare-fun c$35$$35$ausm () Int)
(declare-fun lq_anf$36$$35$$35$7205759403792929021$35$$35$dzed () Int)
(declare-fun VV$35$$35$11100 () Int)
(declare-fun x_Tuple53 () Int)
(declare-fun lq_tmp$36$x$35$$35$7265 () Int)
(declare-fun VV$35$$35$11122 () Int)
(declare-fun lq_anf$36$$35$$35$7205759403792929062$35$$35$dzeS () Real)
(declare-fun GHC.Types.True () Bool)
(declare-fun VV$35$$35$11661 () Int)
(declare-fun VV$35$$35$10415 () Int)
(declare-fun lq_anf$36$$35$$35$7205759403792929016$35$$35$dze8 () Int)
(declare-fun VV$35$$35$12417 () Int)
(declare-fun VV$35$$35$10329 () Int)
(declare-fun VV$35$$35$12112 () Int)
(declare-fun Lib.$36$trModule () Int)
(declare-fun VV$35$$35$10770 () Int)
(declare-fun lq_tmp$36$x$35$$35$2271 () Int)
(declare-fun Graphics.Rendering.Chart.Backend.Types.LineCapButt () Int)
(declare-fun GHC.Types.$91$$93$ () Int)
(declare-fun VV$35$$35$9228 () Int)
(declare-fun VV$35$$35$10572 () Int)
(declare-fun VV$35$$35$9822 () Int)
(declare-fun VV$35$$35$9109 () Int)
(declare-fun VV$35$$35$11393 () Int)
(declare-fun lq_anf$36$$35$$35$7205759403792928993$35$$35$dzdL () Int)
(declare-fun VV$35$$35$10549 () Int)
(declare-fun VV$35$$35$11977 () Int)
(declare-fun VV$35$$35$9473 () Int)
(declare-fun VV$35$$35$10374 () Int)
(declare-fun lq_anf$36$$35$$35$7205759403792929029$35$$35$dzel () Real)
(declare-fun VV$35$$35$9668 () Int)
(declare-fun x_Tuple71 () Int)
(declare-fun fix$36$$36$dEq_axJI () Int)
(declare-fun Graphics.Rendering.Chart.Backend.Types.LineJoinMiter () Int)
(declare-fun VV$35$$35$11339 () Int)
(declare-fun VV$35$$35$8706 () Int)
(declare-fun GHC.Tuple.$40$$44$$41$ () Int)
(declare-fun VV$35$$35$12864 () Int)
(declare-fun VV$35$$35$8607 () Int)
(declare-fun a$35$$35$auv2 () Int)
(declare-fun open$35$$35$atVf () Real)
(declare-fun VV$35$$35$8427 () Int)
(declare-fun lq_anf$36$$35$$35$7205759403792929023$35$$35$dzef () Int)
(declare-fun lq_tmp$36$x$35$$35$7832 () Int)
(declare-fun lq_tmp$36$x$35$$35$6787 () Int)
(declare-fun lq_tmp$36$x$35$$35$2472 () Int)
(declare-fun Lib.$36$fNumEMA () Int)
(declare-fun VV$35$$35$9173 () Int)
(declare-fun VV$35$$35$10511 () Int)
(declare-fun lq_tmp$36$x$35$$35$3338 () Int)
(declare-fun fix$36$$36$dEq_axGI () Int)
(declare-fun fldList () Int)
(declare-fun VV$35$$35$12513 () Int)
(declare-fun lq_tmp$36$x$35$$35$2669 () Int)
(declare-fun lq_tmp$36$x$35$$35$3118 () Int)
(declare-fun GHC.Float.$36$fFractionalDouble () Int)
(declare-fun Data.Functor.Identity.$36$fFunctorIdentity () Int)
(declare-fun VV$35$$35$9775 () Int)
(declare-fun VV$35$$35$12249 () Bool)
(declare-fun VV$35$$35$10757 () Int)
(declare-fun lq_anf$36$$35$$35$7205759403792928986$35$$35$dzdE () Int)
(declare-fun lq_anf$36$$35$$35$7205759403792929080$35$$35$dzfa () Int)
(declare-fun VV$35$$35$11361 () Int)
(declare-fun lq_tmp$36$x$35$$35$6317 () Int)
(declare-fun GHC.Base.$36$fMonadIO () Int)
(declare-fun VV$35$$35$8343 () Int)
(declare-fun ds_dz7U () Int)
(declare-fun VV$35$$35$10151 () Int)
(declare-fun VV$35$$35$8815 () Int)
(declare-fun Data.Foldable.$36$fFoldable$91$$93$ () Int)
(declare-fun VV$35$$35$9386 () Int)
(declare-fun VV$35$$35$12052 () Int)
(declare-fun VV$35$$35$11738 () Int)
(declare-fun VV$35$$35$10713 () Int)
(declare-fun Types.ethUSDticker () Int)
(declare-fun VV$35$$35$10317 () Int)
(declare-fun VV$35$$35$11297 () Real)
(declare-fun lq_tmp$36$x$35$$35$2313 () Int)
(declare-fun GHC.Types.GT () Int)
(declare-fun lq_karg$36$VV$35$$35$5428$35$$35$k_$35$$35$5429 () Int)
(declare-fun lq_tmp$36$x$35$$35$6151 () Int)
(declare-fun VV$35$$35$8646 () Int)
(declare-fun VV$35$$35$10508 () Int)
(declare-fun VV$35$$35$12733 () Int)
(declare-fun lq_anf$36$$35$$35$7205759403792928982$35$$35$dzdA () Int)
(declare-fun lq_tmp$36$x$35$$35$5600 () Int)
(declare-fun Data.Time.LocalTime.TimeZone.utc () Int)
(declare-fun GHC.Integer.Type.$36$fEqInteger () Int)
(declare-fun VV$35$$35$8851 () Int)
(declare-fun VV$35$$35$8792 () Int)
(declare-fun lq_anf$36$$35$$35$7205759403792929086$35$$35$dzfg () Int)
(declare-fun GHC.Classes.$36$fOrdInt () Int)
(declare-fun lq_anf$36$$35$$35$7205759403792929082$35$$35$dzfc () Int)
(declare-fun x_Tuple74 () Int)
(declare-fun Data.Time.Clock.UTC.$36$fFractionalNominalDiffTime () Int)
(declare-fun lq_tmp$36$x$35$$35$2670 () Int)
(declare-fun multiplier$35$$35$aush () Int)
(declare-fun lq_tmp$36$x$35$$35$3321 () Int)
(declare-fun VV$35$$35$10252 () Int)
(declare-fun lq_anf$36$$35$$35$7205759403792929019$35$$35$dzeb () Int)
(declare-fun lq_tmp$36$x$35$$35$3462 () Int)
(declare-fun lq_tmp$36$x$35$$35$7396 () Int)
(declare-fun VV$35$$35$10464 () Int)
(declare-fun VV$35$$35$10789 () Int)
(declare-fun VV$35$$35$12646 () Int)
(declare-fun VV$35$$35$9358 () Int)
(declare-fun VV$35$$35$11186 () Int)
(declare-fun renderedPlot$35$$35$aulc () Int)
(declare-fun VV$35$$35$11052 () Int)
(declare-fun VV$35$$35$9079 () Int)
(declare-fun lq_tmp$36$x$35$$35$6789 () Int)
(declare-fun VV$35$$35$10538 () Int)
(declare-fun VV$35$$35$9143 () Int)
(declare-fun VV$35$$35$9341 () Int)
(declare-fun VV$35$$35$8906 () Int)
(declare-fun VV$35$$35$11610 () Int)
(declare-fun lq_tmp$36$x$35$$35$7272 () Int)
(declare-fun VV$35$$35$12127 () Int)
(declare-fun lq_tmp$36$x$35$$35$2138 () Int)
(declare-fun VV$35$$35$11430 () Int)
(declare-fun VV$35$$35$11799 () Int)
(declare-fun VV$35$$35$10420 () Int)
(declare-fun VV$35$$35$10666 () Int)
(declare-fun len () Int)
(declare-fun papp6 () Int)
(declare-fun VV$35$$35$9493 () Int)
(declare-fun VV$35$$35$11708 () Int)
(declare-fun VV$35$$35$8249 () Int)
(declare-fun x_Tuple22 () Int)
(declare-fun VV$35$$35$9464 () Int)
(declare-fun Lib.$36$fShowSMA () Int)
(declare-fun x_Tuple66 () Int)
(declare-fun x_Tuple44 () Int)
(declare-fun VV$35$$35$11135 () Int)
(declare-fun VV$35$$35$9790 () Int)
(declare-fun VV$35$$35$10688 () Int)
(declare-fun VV$35$$35$9042 () Int)
(declare-fun conf$35$$35$aure () Int)
(declare-fun lq_tmp$36$x$35$$35$6790 () Int)
(declare-fun lq_tmp$36$x$35$$35$2406 () Int)
(declare-fun VV$35$$35$9600 () Int)
(declare-fun VV$35$$35$12693 () Int)
(declare-fun VV$35$$35$10565 () Int)
(declare-fun VV$35$$35$10672 () Int)
(declare-fun lq_anf$36$$35$$35$7205759403792929070$35$$35$dzf0 () Int)
(declare-fun lq_anf$36$$35$$35$7205759403792929083$35$$35$dzfd () Int)
(declare-fun VV$35$$35$8561 () Int)
(declare-fun VV$35$$35$9434 () Int)
(declare-fun lq_tmp$36$x$35$$35$2430 () Int)
(declare-fun VV$35$$35$9803 () Int)
(declare-fun lit$36$Lib () Str)
(declare-fun lq_tmp$36$x$35$$35$3358 () Int)
(declare-fun lq_anf$36$$35$$35$7205759403792929073$35$$35$dzf3 () Int)
(declare-fun lq_tmp$36$x$35$$35$4890 () Int)
(declare-fun lq_anf$36$$35$$35$7205759403792929005$35$$35$dzdX () Int)
(declare-fun Lib.$36$fNumSMA () Int)
(declare-fun VV$35$$35$12551 () Int)
(declare-fun candleIntervalMinutes$35$$35$aurg () Int)
(declare-fun Data.Time.Clock.POSIX.getCurrentTime () Int)
(declare-fun VV$35$$35$8578 () Int)
(declare-fun lq_tmp$36$x$35$$35$2528 () Int)
(declare-fun x_Tuple72 () Int)
(declare-fun VV$35$$35$9568 () Int)
(declare-fun c$35$$35$atVb () Int)
(declare-fun VV$35$$35$10784 () Int)
(declare-fun lq_anf$36$$35$$35$7205759403792929072$35$$35$dzf2 () Int)
(declare-fun VV$35$$35$11318 () Int)
(declare-fun GHC.Base.$36$fFunctorIO () Int)
(declare-fun VV$35$$35$11497 () Int)
(declare-fun VV$35$$35$9113 () Int)
(declare-fun isJust () Int)
(declare-fun lq_tmp$36$x$35$$35$5910 () Int)
(declare-fun VV$35$$35$9416 () Int)
(declare-fun lit$36$$47$Users$47$rushishah$47$work$47$beginners$45$luck$47$src$47$Lib.hs$58$$40$89$44$1$41$$45$$40$92$44$67$41$$124$function$32$ema () Str)
(declare-fun lq_tmp$36$x$35$$35$7705 () Int)
(declare-fun lq_anf$36$$35$$35$7205759403792929078$35$$35$dzf8 () Int)
(declare-fun Graphics.Rendering.Chart.Plot.Candle.Candle () Int)
(declare-fun VV$35$$35$10751 () Int)
(declare-fun lq_tmp$36$x$35$$35$2285 () Int)
(declare-fun VV$35$$35$9083 () Int)
(declare-fun VV$35$$35$10748 () Int)
(declare-fun VV$35$$35$12670 () Int)
(declare-fun fix$36$$36$dMonadResource_axlS () Int)
(declare-fun lq_anf$36$$35$$35$7205759403792929039$35$$35$dzev () Int)
(declare-fun granularity$35$$35$axf9 () Int)
(declare-fun VV$35$$35$11479 () Int)
(declare-fun VV$35$$35$8974 () Int)
(declare-fun GHC.Classes.$36$fOrdDouble () Int)
(declare-fun lq_tmp$36$x$35$$35$7578 () Int)
(declare-fun lq_tmp$36$x$35$$35$7882 () Int)
(declare-fun Data.Functor.Identity.$36$fMonadIdentity () Int)
(declare-fun lq_karg$36$VV$35$$35$5623$35$$35$k_$35$$35$5624 () Int)
(declare-fun lq_tmp$36$x$35$$35$7266 () Int)
(declare-fun lq_tmp$36$x$35$$35$2337 () Int)
(declare-fun VV$35$$35$12436 () Int)
(declare-fun h$35$$35$atV9 () Int)
(declare-fun VV$35$$35$9737 () Int)
(declare-fun VV$35$$35$10631 () Int)
(declare-fun VV$35$$35$8225 () Int)
(declare-fun VV$35$$35$10334 () Int)
(declare-fun fix$36$$36$dMonadState_axpm () Int)
(declare-fun VV$35$$35$8984 () Int)
(declare-fun VV$35$$35$10613 () Int)
(declare-fun ds_dz7D () Int)
(declare-fun VV$35$$35$11665 () Int)
(declare-fun VV$35$$35$10675 () Int)
(declare-fun VV$35$$35$10729 () Int)
(declare-fun VV$35$$35$12413 () Int)
(declare-fun VV$35$$35$9510 () Int)
(declare-fun VV$35$$35$11638 () Int)
(declare-fun VV$35$$35$9859 () Int)
(declare-fun lq_tmp$36$x$35$$35$5601 () Int)
(declare-fun VV$35$$35$8467 () Int)
(declare-fun x_Tuple31 () Int)
(declare-fun Lib.$36$tcSMA () Int)
(declare-fun VV$35$$35$9477 () Int)
(declare-fun x_Tuple75 () Int)
(declare-fun VV$35$$35$8379 () Int)
(declare-fun lq_tmp$36$x$35$$35$2451 () Int)
(declare-fun VV$35$$35$9051 () Int)
(declare-fun lq_tmp$36$x$35$$35$3463 () Int)
(declare-fun VV$35$$35$8702 () Int)
(declare-fun VV$35$$35$12530 () Int)
(declare-fun VV$35$$35$11058 () Int)
(declare-fun lq_anf$36$$35$$35$7205759403792928999$35$$35$dzdR () Int)
(declare-fun VV$35$$35$9334 () Int)
(declare-fun VV$35$$35$8746 () Int)
(declare-fun VV$35$$35$9613 () Int)
(declare-fun lq_tmp$36$x$35$$35$3265 () Int)
(declare-fun GHC.Float.$36$fNumDouble () Int)
(declare-fun lq_tmp$36$x$35$$35$2668 () Int)
(declare-fun VV$35$$35$12879 () Int)
(declare-fun VV$35$$35$8665 () Int)
(declare-fun VV$35$$35$10628 () Int)
(declare-fun lq_tmp$36$x$35$$35$8002 () Int)
(declare-fun VV$35$$35$9963 () Int)
(declare-fun lq_tmp$36$x$35$$35$4860 () Int)
(declare-fun GHC.Types.TrNameS () Int)
(declare-fun lq_tmp$36$x$35$$35$5788 () Int)
(declare-fun lq_tmp$36$x$35$$35$5986 () Int)
(declare-fun VV$35$$35$9480 () Int)
(declare-fun VV$35$$35$10408 () Int)
(declare-fun Data.Time.Clock.UTC.$36$fNumNominalDiffTime () Int)
(declare-fun VV$35$$35$9576 () Int)
(declare-fun VV$35$$35$11243 () Int)
(declare-fun VV$35$$35$11379 () Real)
(declare-fun lq_tmp$36$x$35$$35$7617 () Int)
(declare-fun papp1 () Int)
(declare-fun VV$35$$35$11945 () Int)
(declare-fun Graphics.Rendering.Chart.Axis.LocalTime.$36$fPlotValueLocalTime () Int)
(declare-fun GHC.Real.$36$fRealInteger () Int)
(declare-fun VV$35$$35$8383 () Int)
(declare-fun x_Tuple61 () Int)
(declare-fun lq_tmp$36$x$35$$35$3387 () Int)
(declare-fun fix$36$$36$dToRenderable_axFS () Int)
(declare-fun x_Tuple43 () Int)
(declare-fun VV$35$$35$9247 () Int)
(declare-fun GHC.Types.D$35$ () Int)
(declare-fun VV$35$$35$9678 () Int)
(declare-fun VV$35$$35$9302 () Int)
(declare-fun VV$35$$35$9876 () Int)
(declare-fun VV$35$$35$8617 () Int)
(declare-fun tail () Int)
(declare-fun VV$35$$35$9023 () Int)
(declare-fun VV$35$$35$10911 () Int)
(declare-fun VV$35$$35$11918 () Int)
(declare-fun VV$35$$35$12092 () Int)
(declare-fun lq_tmp$36$x$35$$35$2423 () Int)
(declare-fun lq_anf$36$$35$$35$7205759403792928988$35$$35$dzdG () Int)
(declare-fun VV$35$$35$F$35$$35$170 () Int)
(declare-fun Lib.$36$fEqSMA () Int)
(declare-fun lq_tmp$36$x$35$$35$3334 () Int)
(declare-fun GHC.Types.TyCon () Int)
(declare-fun lq_tmp$36$x$35$$35$3316 () Int)
(declare-fun fileName$35$$35$aul9 () Str)
(declare-fun VV$35$$35$11990 () Int)
(declare-fun VV$35$$35$8716 () Int)
(declare-fun lq_karg$36$fileName$35$$35$aul9$35$$35$k_$35$$35$5624 () Str)
(declare-fun VV$35$$35$11550 () Int)
(declare-fun VV$35$$35$9779 () Int)
(declare-fun VV$35$$35$12366 () Int)
(declare-fun lq_tmp$36$x$35$$35$4388 () Real)
(declare-fun VV$35$$35$10625 () Int)
(declare-fun VV$35$$35$12883 () Int)
(declare-fun VV$35$$35$9559 () Int)
(declare-fun VV$35$$35$9881 () Int)
(declare-fun lq_tmp$36$x$35$$35$4874 () Int)
(declare-fun VV$35$$35$10661 () Int)
(declare-fun VV$35$$35$10023 () Int)
(declare-fun a$35$$35$auv0 () Int)
(declare-fun VV$35$$35$12844 () Int)
(declare-fun VV$35$$35$13001 () Bool)
(declare-fun VV$35$$35$8762 () Int)
(declare-fun VV$35$$35$9013 () Int)
(declare-fun lq_tmp$36$x$35$$35$6785 () Int)
(declare-fun VV$35$$35$9864 () Int)
(declare-fun lq_tmp$36$x$35$$35$2215 () Int)
(declare-fun VV$35$$35$11461 () Int)
(declare-fun lq_tmp$36$x$35$$35$2372 () Int)
(declare-fun VV$35$$35$8218 () Int)
(declare-fun VV$35$$35$9903 () Int)
(declare-fun lq_tmp$36$x$35$$35$4844 () Int)
(declare-fun VV$35$$35$8366 () Int)
(declare-fun VV$35$$35$8957 () Int)
(declare-fun Lib.$36$tcEMA () Int)
(declare-fun VV$35$$35$9749 () Int)
(declare-fun GHC.Float.$36$fFloatingDouble () Int)
(declare-fun VV$35$$35$10587 () Int)
(declare-fun lq_tmp$36$x$35$$35$3078 () Int)
(declare-fun x_Tuple51 () Int)
(declare-fun lq_tmp$36$x$35$$35$7267 () Int)
(declare-fun VV$35$$35$10736 () Int)
(declare-fun VV$35$$35$10174 () Int)
(declare-fun VV$35$$35$11829 () Int)
(declare-fun VV$35$$35$10013 () Int)
(declare-fun VV$35$$35$11443 () Int)
(declare-fun lq_anf$36$$35$$35$7205759403792929022$35$$35$dzee () Int)
(declare-fun VV$35$$35$10839 () Int)
(declare-fun x_Tuple73 () Int)
(declare-fun VV$35$$35$8597 () Int)
(declare-fun VV$35$$35$11164 () Int)
(declare-fun GHC.Types.EQ () Int)
(declare-fun VV$35$$35$8627 () Int)
(declare-fun VV$35$$35$9938 () Int)
(declare-fun lq_karg$36$candles$35$$35$aula$35$$35$k_$35$$35$5624 () Int)
(declare-fun lq_tmp$36$x$35$$35$3106 () Int)
(declare-fun VV$35$$35$11226 () Real)
(declare-fun VV$35$$35$8327 () Int)
(declare-fun fix$36$$36$dShow_axJ9 () Int)
(declare-fun VV$35$$35$9373 () Int)
(declare-fun VV$35$$35$9153 () Int)
(declare-fun Lib.SMA () Int)
(declare-fun VV$35$$35$9412 () Int)
(declare-fun VV$35$$35$11079 () Int)
(declare-fun VV$35$$35$10531 () Int)
(declare-fun VV$35$$35$8547 () Int)
(declare-fun lq_tmp$36$x$35$$35$7600 () Int)
(declare-fun VV$35$$35$8691 () Int)
(declare-fun VV$35$$35$10456 () Int)
(declare-fun lq_tmp$36$x$35$$35$6337 () Int)
(declare-fun VV$35$$35$10654 () Int)
(declare-fun timeWindow$35$$35$axf8 () Int)
(declare-fun VV$35$$35$10429 () Int)
(declare-fun VV$35$$35$12674 () Int)
(declare-fun lq_tmp$36$x$35$$35$2128 () Int)
(declare-fun VV$35$$35$10997 () Int)
(declare-fun lq_tmp$36$x$35$$35$4940 () Int)
(declare-fun lq_tmp$36$x$35$$35$7493 () Int)
(declare-fun startTime$35$$35$ausd () Int)
(declare-fun fix$36$$36$dNum_aux3 () Int)
(declare-fun x_Tuple54 () Int)
(declare-fun lq_anf$36$$35$$35$7205759403792929089$35$$35$dzfj () Int)
(declare-fun VV$35$$35$10171 () Int)
(declare-fun lq_tmp$36$x$35$$35$7790 () Int)
(declare-fun VV$35$$35$8204 () Int)
(declare-fun VV$35$$35$12432 () Int)
(declare-fun VV$35$$35$10777 () Int)
(declare-fun VV$35$$35$10168 () Int)
(declare-fun Control.Monad.Catch.$36$fMonadThrowIO () Int)
(declare-fun lq_tmp$36$x$35$$35$3165 () Int)
(declare-fun lq_tmp$36$x$35$$35$3244 () Int)
(declare-fun VV$35$$35$9807 () Int)
(declare-fun v$35$$35$atVc () Int)
(declare-fun VV$35$$35$10825 () Int)
(declare-fun VV$35$$35$10483 () Int)
(declare-fun lq_tmp$36$x$35$$35$3064 () Int)
(declare-fun VV$35$$35$12555 () Int)
(declare-fun x_Tuple32 () Int)
(declare-fun VV$35$$35$9825 () Int)
(declare-fun VV$35$$35$9456 () Int)
(declare-fun VV$35$$35$11871 () Int)
(declare-fun VV$35$$35$11143 () Int)
(declare-fun VV$35$$35$9609 () Int)
(declare-fun Data.Time.LocalTime.LocalTime.$36$fOrdLocalTime () Int)
(declare-fun x_Tuple76 () Int)
(declare-fun VV$35$$35$9123 () Int)
(declare-fun VV$35$$35$10833 () Int)
(declare-fun lq_tmp$36$x$35$$35$2523 () Int)
(declare-fun GHC.Float.$36$fRealDouble () Int)
(declare-fun lq_anf$36$$35$$35$7205759403792929025$35$$35$dzeh () Int)
(declare-fun utcTime$35$$35$ausi () Int)
(declare-fun VV$35$$35$11890 () Int)
(declare-fun fix$36$$36$dDefault_axFR () Int)
(declare-fun VV$35$$35$F$35$$35$171 () Int)
(declare-fun VV$35$$35$11180 () Int)
(declare-fun VV$35$$35$9338 () Int)
(declare-fun lq_tmp$36$x$35$$35$3335 () Int)
(declare-fun lq_anf$36$$35$$35$7205759403792929012$35$$35$dze4 () Int)
(declare-fun lq_anf$36$$35$$35$7205759403792929042$35$$35$dzey () Int)
(declare-fun lq_tmp$36$x$35$$35$2545 () Int)
(declare-fun VV$35$$35$8313 () Int)
(declare-fun lq_tmp$36$x$35$$35$3317 () Int)
(declare-fun VV$35$$35$10246 () Int)
(declare-fun VV$35$$35$11414 () Int)
(declare-fun lq_tmp$36$x$35$$35$2325 () Int)
(declare-fun lq_tmp$36$x$35$$35$6338 () Int)
(declare-fun VV$35$$35$10707 () Int)
(declare-fun VV$35$$35$11436 () Int)
(declare-fun VV$35$$35$10606 () Int)
(declare-fun l$35$$35$ausj () Int)
(declare-fun VV$35$$35$12200 () Bool)
(declare-fun VV$35$$35$10426 () Int)
(declare-fun VV$35$$35$10743 () Int)
(declare-fun VV$35$$35$12460 () Int)
(declare-fun VV$35$$35$11867 () Int)
(declare-fun lq_tmp$36$x$35$$35$3072 () Int)
(declare-fun GHC.Base.Just () Int)
(declare-fun GHC.Real.$36$fIntegralInt () Int)
(declare-fun snd () Int)
(declare-fun Lib.$36$fShowEMA () Int)
(declare-fun fst () Int)
(declare-fun VV$35$$35$9899 () Int)
(declare-fun lq_tmp$36$x$35$$35$3386 () Int)
(declare-fun VV$35$$35$11515 () Int)
(declare-fun VV$35$$35$10118 () Int)
(declare-fun VV$35$$35$10019 () Int)
(declare-fun lq_tmp$36$x$35$$35$4222 () Int)
(declare-fun x_Tuple42 () Int)
(declare-fun lq_anf$36$$35$$35$7205759403792929027$35$$35$dzej () Int)
(declare-fun VV$35$$35$8256 () Int)
(declare-fun fix$36$$36$dMonad_ay0w () Int)
(declare-fun VV$35$$35$11922 () Int)
(declare-fun lq_tmp$36$x$35$$35$3904 () Int)
(declare-fun VV$35$$35$10505 () Int)
(declare-fun lq_tmp$36$x$35$$35$2279 () Int)
(declare-fun VV$35$$35$12390 () Int)
(declare-fun VV$35$$35$10877 () Int)
(declare-fun lq_tmp$36$x$35$$35$3234 () Int)
(declare-fun lq_tmp$36$x$35$$35$3216 () Int)
(declare-fun VV$35$$35$8551 () Int)
(declare-fun VV$35$$35$10811 () Int)
(declare-fun lq_anf$36$$35$$35$7205759403792929013$35$$35$dze5 () Int)
(declare-fun lq_tmp$36$x$35$$35$7717 () Int)
(assert (distinct lit$36$$47$Users$47$rushishah$47$work$47$beginners$45$luck$47$src$47$Lib.hs$58$$40$89$44$1$41$$45$$40$92$44$67$41$$124$function$32$ema lit$36$Lib lit$36$main lit$36$$39$EMA lit$36$$39$SMA lit$36$SMA$32$ lit$36$SMA lit$36$EMA lit$36$EMA$32$))



(assert (distinct GHC.Types.EQ GHC.Types.GT GHC.Types.LT))
(assert (= (strLen lit$36$EMA$32$) 4))
(assert (= (strLen lit$36$EMA) 3))
(assert (= (strLen lit$36$SMA) 3))
(assert (= (strLen lit$36$SMA$32$) 4))
(assert (= (strLen lit$36$$39$SMA) 4))
(assert (= (strLen lit$36$$39$EMA) 4))
(assert (= (strLen lit$36$main) 4))
(assert (= (strLen lit$36$Lib) 3))
(assert (= (strLen lit$36$$47$Users$47$rushishah$47$work$47$beginners$45$luck$47$src$47$Lib.hs$58$$40$89$44$1$41$$45$$40$92$44$67$41$$124$function$32$ema) 75))
(push 1)
(assert (and (exists ((lq_karg$36$VV$35$$35$5623$35$$35$k_$35$$35$5624 Int) (lq_karg$36$fileName$35$$35$aul9$35$$35$k_$35$$35$5624 Str) (lq_karg$36$candles$35$$35$aula$35$$35$k_$35$$35$5624 Int)) (and (and (= lq_karg$36$VV$35$$35$5623$35$$35$k_$35$$35$5624 VV$35$$35$F$35$$35$171) (= lq_karg$36$fileName$35$$35$aul9$35$$35$k_$35$$35$5624 fileName$35$$35$aul9) (= lq_karg$36$candles$35$$35$aula$35$$35$k_$35$$35$5624 candles$35$$35$aula)) (exists ((VV$35$$35$10013 Int) (VV$35$$35$F$35$$35$170 Int)) (and (and (>= (int_apply_$35$$35$1 len VV$35$$35$10013) 0) (= VV$35$$35$10013 candles$35$$35$aula) (>= (int_apply_$35$$35$1 len VV$35$$35$10013) 0)) (and (= lq_karg$36$VV$35$$35$5623$35$$35$k_$35$$35$5624 VV$35$$35$F$35$$35$170) (= lq_karg$36$fileName$35$$35$aul9$35$$35$k_$35$$35$5624 fileName$35$$35$aul9) (= lq_karg$36$candles$35$$35$aula$35$$35$k_$35$$35$5624 candles$35$$35$aula)))))) (>= (int_apply_$35$$35$1 len fileName$35$$35$aul9) 0) (>= (int_apply_$35$$35$1 len candles$35$$35$aula) 0) GHC.Types.True GHC.Types.True))
(push 1)
(assert (not (= 0 1)))
(check-sat)
; SMT Says: Sat
(pop 1)
(pop 1)
(push 1)
(assert (and (and (= lq_anf$36$$35$$35$7205759403792929028$35$$35$dzek ds_dz7D) (= lq_anf$36$$35$$35$7205759403792929028$35$$35$dzek (int_apply_$35$$35$1 (int_apply_$35$$35$1 (int_apply_$35$$35$1 (int_apply_$35$$35$1 (int_apply_$35$$35$1 (int_apply_$35$$35$1 Coinbase.Exchange.Types.MarketData.Candle utcTime$35$$35$atV7) l$35$$35$atV8) h$35$$35$atV9) o$35$$35$atVa) c$35$$35$atVb) v$35$$35$atVc))) (= lq_anf$36$$35$$35$7205759403792929029$35$$35$dzel (+ open$35$$35$atVf close$35$$35$atVg)) (= lq_anf$36$$35$$35$7205759403792929030$35$$35$dzem 2.00000) (= lq_anf$36$$35$$35$7205759403792929028$35$$35$dzek ds_dz7D) (= lq_anf$36$$35$$35$7205759403792929028$35$$35$dzek ds_dz7D) GHC.Types.True (and (= VV$35$$35$F$35$$35$184 2.00000) (= VV$35$$35$F$35$$35$184 lq_anf$36$$35$$35$7205759403792929030$35$$35$dzem)) GHC.Types.True))
(push 1)
(assert (not (and (not (= VV$35$$35$F$35$$35$184 0)) (not (= VV$35$$35$F$35$$35$184 0.00000)))))
(check-sat)
; SMT Says: Unsat
(pop 1)
(pop 1)
(exit)
